objective value:                                  420
lambda[1,42]*                                       1 	(obj:42)
lambda[0,75]*                                       2 	(obj:28)
lambda[1,78]*                                       1 	(obj:0)
lambda[1,79]*                                       1 	(obj:42)
lambda[0,78]*                                       1 	(obj:28)
lambda[1,80]*                                       1 	(obj:14)
lambda[1,81]*                                       1 	(obj:42)
lambda[1,82]*                                       2 	(obj:0)
lambda[0,80]*                                       1 	(obj:28)
lambda[1,83]*                                       1 	(obj:0)
lambda[0,81]*                                       4 	(obj:28)
lambda[1,84]*                                       2 	(obj:0)
lambda[0,82]*                                       2 	(obj:28)
